ejercicio5.smt.out
sat
(
  (define-fun k () Real
    (- 3.0))
)
